NAME : gaussian_missing_edges_with_de_seg1_seg2_seg3_random145.9441.tour
COMMENT : Length = 9441
COMMENT : Found by LKH [Keld Helsgaun] Fri Jul 12 16:45:00 2024
TYPE : TOUR
DIMENSION : 145
TOUR_SECTION
1
51
12
133
98
44
25
129
135
77
28
84
57
136
109
81
76
52
74
140
32
27
119
5
39
139
24
137
50
10
8
67
36
143
144
99
48
56
113
42
43
33
118
14
62
145
121
79
45
131
20
49
103
105
97
101
93
34
69
64
3
124
72
19
86
26
61
126
54
114
53
63
125
16
15
94
96
132
47
128
106
6
80
108
70
29
66
58
100
60
83
9
59
130
90
18
95
141
73
127
30
85
65
78
82
35
75
92
87
116
68
122
7
41
89
11
4
21
120
17
88
107
117
31
91
138
134
104
23
40
2
102
37
22
13
115
55
46
142
112
71
111
38
110
123
-1
EOF
